Route 1: 0 88 37 61 24 98 1 65 10 43 70 79 18 0
Route 2: 0 40 25 76 34 78 50 58 45 67 0
Route 3: 0 96 39 22 73 4 35 15 71 89 0
Route 4: 0 29 2 14 52 7 99 3 95 60 30 57 53 0
Route 5: 0 12 74 28 5 69 72 62 80 0
Route 6: 0 82 13 94 16 92 19 90 41 8 0
Route 7: 0 38 56 36 83 91 23 20 31 54 44 0
Route 8: 0 47 81 77 97 55 75 27 84 0
Route 9: 0 9 63 46 66 59 87 17 0
Route 10: 0 49 64 42 100 6 48 86 68 33 32 51 0
Route 11: 0 26 85 11 21 93 0
